1
1000
158
22 1
24 2
26 1
27 1
29 2
33 1
34 1
35 1
38 1
39 1
40 1
43 1
44 1
48 1
49 1
50 1
51 1
52 1
53 1
55 1
56 2
57 1
58 1
59 1
66 3
67 1
73 1
74 1
76 1
80 1
81 1
82 1
88 1
90 1
91 1
92 2
93 1
94 1
96 1
99 2
103 2
105 1
109 1
113 1
115 1
117 2
120 1
122 1
125 1
127 1
128 1
130 1
138 1
139 1
140 1
144 1
146 1
149 1
152 1
155 2
156 1
157 1
158 2
159 1
161 1
163 1
165 2
167 1
172 1
177 1
178 1
179 1
185 1
186 3
187 1
188 2
189 1
196 1
197 1
200 1
201 2
202 2
203 2
206 1
209 1
211 1
214 1
217 3
218 1
220 1
221 1
224 2
225 1
226 2
227 1
228 1
234 1
237 1
238 2
240 1
241 2
242 1
243 2
244 2
245 1
249 2
255 2
257 1
259 1
261 1
262 1
263 1
264 2
265 1
266 1
272 1
275 2
277 2
280 2
285 1
292 1
294 1
295 1
297 3
300 2
307 1
308 1
311 2
315 1
316 1
320 1
321 1
323 1
324 1
327 1
328 2
333 1
335 1
337 1
338 1
339 1
340 2
347 1
348 1
350 1
351 1
353 1
354 1
357 1
360 1
366 1
367 1
368 2
369 1
370 3
373 1
378 2
380 1
